
Gurobi 9.1.2 (linux64, gurobi_cl) logging started Fri Jul 30 13:51:56 2021

Using license file /opt/gurobi/gurobi.lic
Set parameter TimeLimit to value 600
Set parameter MIPFocus to value 2
Set parameter LogFile to value 912-MIPFocus2-Presolve1-glass4-1.log
Set parameter Presolve to value 1
Set parameter Seed to value 1

Gurobi Optimizer version 9.1.2 build v9.1.2rc0 (linux64)
Copyright (c) 2021, Gurobi Optimization, LLC

Read MPS format model from file /nfs/models/mip/glass4.mps.bz2
Reading time = 0.16 seconds
glass4: 396 rows, 322 columns, 1815 nonzeros
Thread count: 4 physical cores, 8 logical processors, using up to 8 threads
Optimize a model with 396 rows, 322 columns and 1815 nonzeros
Model fingerprint: 0x0a9d9037
Variable types: 20 continuous, 302 integer (0 binary)
Coefficient statistics:
  Matrix range     [1e+00, 8e+06]
  Objective range  [1e+00, 1e+06]
  Bounds range     [1e+00, 8e+02]
  RHS range        [1e+00, 8e+06]
Presolve removed 4 rows and 6 columns
Presolve time: 0.00s
Presolved: 392 rows, 316 columns, 1811 nonzeros
Variable types: 19 continuous, 297 integer (297 binary)
Found heuristic solution: objective 3.133356e+09

Root relaxation: objective 8.000024e+08, 72 iterations, 0.00 seconds

    Nodes    |    Current Node    |     Objective Bounds      |     Work
 Expl Unexpl |  Obj  Depth IntInf | Incumbent    BestBd   Gap | It/Node Time

     0     0 8.0000e+08    0   72 3.1334e+09 8.0000e+08  74.5%     -    0s
H    0     0                    2.200018e+09 8.0000e+08  63.6%     -    0s
H    0     0                    2.100019e+09 8.0000e+08  61.9%     -    0s
     0     0 8.0000e+08    0   72 2.1000e+09 8.0000e+08  61.9%     -    0s
     0     0 8.0000e+08    0   72 2.1000e+09 8.0000e+08  61.9%     -    0s
H    0     0                    2.083350e+09 8.0000e+08  61.6%     -    0s
     0     2 8.0000e+08    0   72 2.0833e+09 8.0000e+08  61.6%     -    0s
H   31    40                    2.000016e+09 8.0000e+08  60.0%  10.1    0s
H  171   208                    1.900016e+09 8.0000e+08  57.9%   4.3    0s
H  632   713                    1.900015e+09 8.0000e+08  57.9%   6.0    0s
H 1027   856                    1.875015e+09 8.0000e+08  57.3%   7.7    0s
H 1028   813                    1.850015e+09 8.0000e+08  56.8%   7.7    0s
H 1029   774                    1.833349e+09 8.0001e+08  56.4%   7.7    0s
H 1029   735                    1.830015e+09 8.0001e+08  56.3%   7.7    0s
H 1029   698                    1.825015e+09 8.0001e+08  56.2%   7.7    0s
H 1030   664                    1.666681e+09 8.0001e+08  52.0%   7.7    0s
H 1030   631                    1.650014e+09 8.0001e+08  51.5%   7.7    0s
H 1032   600                    1.637514e+09 8.0001e+08  51.1%   7.7    1s
H 1110   626                    1.612513e+09 8.0001e+08  50.4%  13.1    1s
H 1239   670                    1.612513e+09 8.0001e+08  50.4%  15.2    1s
H 2040   848                    1.600014e+09 8.0001e+08  50.0%  21.3    2s
H 2261   932                    1.600014e+09 8.0001e+08  50.0%  22.4    3s
H 2265   858                    1.550014e+09 8.0001e+08  48.4%  22.4    3s
H 2266   816                    1.500014e+09 8.0001e+08  46.7%  22.4    3s
H 3504  1475                    1.500014e+09 8.0389e+08  46.4%  27.4    4s
  4899  2133 9.0001e+08   28   58 1.5000e+09 8.5093e+08  43.3%  31.0    5s
* 7238  3410              54    1.500013e+09 9.0000e+08  40.0%  32.1    6s
* 7496  2805              53    1.475013e+09 9.0000e+08  39.0%  32.2    6s
 13115  5693 infeasible   49      1.4750e+09 9.0001e+08  39.0%  39.5   10s
H13845  5845                    1.450012e+09 9.0001e+08  37.9%  40.0   10s
H15275  6160                    1.450012e+09 9.0001e+08  37.9%  41.1   12s
*15778  6642              47    1.433349e+09 9.0001e+08  37.2%  41.3   13s
 18202  7155 1.3000e+09   23   47 1.4333e+09 9.0001e+08  37.2%  42.5   15s
 26116  8730 9.7501e+08   36   51 1.4333e+09 9.2020e+08  35.8%  46.5   20s
*27432  8861              49    1.400014e+09 9.3601e+08  33.1%  46.4   20s
H30016  7570                    1.375015e+09 9.7827e+08  28.9%  46.3   22s
 31963  7624 infeasible   34      1.3750e+09 1.0000e+09  27.3%  48.1   25s
*36919  4690              36    1.200013e+09 1.0000e+09  16.7%  51.5   28s
 40126  2016 infeasible   40      1.2000e+09 1.1667e+09  2.78%  50.8   30s

Cutting planes:
  Gomory: 135
  Cover: 348
  Implied bound: 202
  Projected implied bound: 9
  MIR: 115
  Flow cover: 802
  Inf proof: 39
  RLT: 109
  Relax-and-lift: 250

Explored 40760 nodes (2085218 simplex iterations) in 30.43 seconds
Thread count was 8 (of 8 available processors)

Solution count 10: 1.20001e+09 1.37501e+09 1.40001e+09 ... 1.50001e+09

Optimal solution found (tolerance 1.00e-04)
Best objective 1.200012600000e+09, best bound 1.200003400000e+09, gap 0.0008%
